#== Datasets ==#
 ndtset 2

#== Basis set ==#
 ecut 15.0
 ecutsm 0.5

#== Bands ==#
 nband2 8

#== k-point grid ==#
 kptbounds2
    0.5000000000    0.5000000000    0.0000000000
    0.0000000000    0.0000000000    0.0000000000
    0.5000000000    0.0000000000    0.0000000000
 kptopt1 1
 kptopt2 -2
 ngkpt1 4 4 4
 nshiftk1 4
 shiftk1
    0.5    0.5    0.5
    0.5    0.0    0.0
    0.0    0.5    0.0
    0.0    0.0    0.5

#== SCF procedure ==#
 iscf2 -2
 nstep1 50
 nstep2 50
 tolvrs1 1e-14
 tolwfr2 1e-18

#== Unit cell ==#
 acell   10.263   10.263   10.263
 natom 2
 ntypat 1
 rprim
    0.0000000000    0.5000000000    0.5000000000
    0.5000000000    0.0000000000    0.5000000000
    0.5000000000    0.5000000000    0.0000000000
 typat 1 1
 xred
    0.0000000000    0.0000000000    0.0000000000
    0.2500000000    0.2500000000    0.2500000000
 znucl 14

#== Files ==#
 irdden2 1

#== Other ==#
 diemac 9.0
 ndivsm2 20
