#== Basis set ==#
 ecut 15.0
 ecutsm 0.5

#== k-point grid ==#
 kptopt 1
 ngkpt 4 4 4
 nshiftk 4
 shiftk
    0.5    0.5    0.5
    0.5    0.0    0.0
    0.0    0.5    0.0
    0.0    0.0    0.5

#== SCF procedure ==#
 nstep 50
 tolvrs 1e-14

#== Unit cell ==#
 acell   10.263   10.263   10.263
 natom 2
 ntypat 1
 rprim
    0.0000000000    0.5000000000    0.5000000000
    0.5000000000    0.0000000000    0.5000000000
    0.5000000000    0.5000000000    0.0000000000
 typat 1 1
 xred
    0.0000000000    0.0000000000    0.0000000000
    0.2500000000    0.2500000000    0.2500000000
 znucl 14

#== Other ==#
 diemac 9.0
